c --- [ banner ] -------------------------------------------------------------
c 
c CaDiCaL Radically Simplified CDCL SAT Solver
c Copyright (c) 2016-2021 A. Biere, M. Fleury, N. Froleyks
c 
c Version 1.5.2 9c38a080b32c28d805e8e6ca21849856b0cda605
c g++ (Ubuntu 7.5.0-3ubuntu1~18.04) 7.5.0 -Wall -Wextra -O3 -DNDEBUG
c Wed Feb 16 23:15:36 EST 2022 Linux fac-vanhoeve01 5.4.0-99-generic x86_64
c 
c --- [ limit ] --------------------------------------------------------------
c 
c setting time limit to 600 seconds real time (due to '-t 600')
c setting conflict limit to 1000000000 conflicts (due to '1000000000')
c 
c --- [ parsing input ] ------------------------------------------------------
c 
c reading DIMACS file from 'ddfwcnfs/DSJR500.5.col_122.cnf'
c opening file to read 'ddfwcnfs/DSJR500.5.col_122.cnf'
c found 'p cnf 61000 3886444' header
c parsed 3886444 clauses in 2.45 seconds process time
c closing file 'ddfwcnfs/DSJR500.5.col_122.cnf'
c after reading 60891054 bytes 58.1 MB
c 
c --- [ options ] ------------------------------------------------------------
c 
c all options are set to their default value
c 
c --- [ solving ] ------------------------------------------------------------
c 
c time measured in process time since initialization
c 
c  seconds   reductions  redundant   irredundant
c          MB    restarts       trail        variables
c           level   conflicts       glue          remaining
c 
c *  2.45 324  0 0   0    0    0  0% 0 3849352 45915 75%
c {  2.46 325  0 0   0    0    0  0% 0 3849352 45915 75%
c -  3.40 325 54 1  44  301  214 42% 31 3848260 45915 75%
c }  4.07 325 84 1 179 1000  754 49% 46 3848260 45915 75%
c [  4.07 325  0 1 179 1000  754  0% 0 3848260 45915 75%
c O  4.07 325 170 1 179 1002  756 54% 19 3848260 45915 75%
c -  6.44 414 36 2 179 1852 1191 34% 26 3848260 45915 75%
c ]  6.58 414 43 2 180 3001 2093 34% 32 3848260 45915 75%
c {  6.58 414 84 2 180 3001 2093 49% 46 3848260 45915 75%
c F  8.83 407 84 2 180 3003 2095  6% 46 3848260 45915 75%
c - 10.92 436 82 3 199 4179 2333 29% 42 3848260 45915 75%
c p 14.16 436 74 3 200 5002 2882 28% 42 3848260 45915 75%
c # 15.17 436 71 3 250 6005 3504 28% 42 3848260 45915 75%
c } 15.38 436 73 3 250 7001 4312 27% 40 3848260 45915 75%
c [ 15.38 436 43 3 250 7001 4312 46% 32 3848260 45915 75%
c - 17.10 436 43 4 251 7282 2765 41% 31 3848260 45915 75%
c I 17.44 436 45 4 252 10008 4767 25% 31 3848260 45915 75%
c - 19.50 436 1161 5 253 11159 3877 33% 35 3848260 45915 75%
c s 21.23 436 1009 5 254 12783 5148 34% 40 3848260 45915 75%
c e 28.01 480 1009 5 254 12783 1364 34% 40 1587248 25788 42%
c 
c  seconds     reductions   redundant    irredundant
c          MB      restarts        trail         variables
c            level     conflicts       glue           remaining
c 
c s 28.35 480 1009 5 254 12783 1353 34% 40 1587248 25788 42%
c ^ 28.80 480 1009 5 254 12783 1353 34% 40 1587248 25788 42%
c ] 30.41 400 814 5 255 15002 2920 44% 49 1587248 25788 42%
c { 30.42 400 73 5 255 15002 2920 48% 40 1587248 25788 42%
c p 31.62 400 73 5 255 15002 2989 48% 40 1587248 25788 42%
c B 31.94 400 78 5 255 15010 2997 48% 40 1587248 25788 42%
c - 32.92 401 82 6 456 15812 2786 45% 42 1587248 25788 42%
c - 34.74 401 88 7 949 20434 4552 40% 44 1587248 25788 42%
c W 35.59 401 89 7 980 21013 5048 39% 44 1587248 25788 42%
c - 37.20 401 202 8 1486 25716 5413 36% 44 1587248 25788 42%
c F 37.64 401 183 8 2014 28017 7114 34% 46 1587248 25788 42%
c p 39.10 401 166 8 2016 30002 9251 32% 43 1587248 25788 42%
c } 39.51 401 159 8 2016 31006 10034 31% 42 1587248 25788 42%
c [ 39.51 401 814 8 2016 31006 10034 44% 49 1587248 25788 42%
c - 40.28 401 764 9 2016 31657 6001 37% 48 1587248 25788 42%
c B 40.80 401 541 9 2019 36018 9392 25% 42 1587248 25788 42%
c s 41.03 401 547 9 2019 36559 9502 25% 43 1587248 25788 42%
c s 43.18 401 547 9 2019 36559 9364 25% 43 1587248 25788 42%
c ^ 43.50 401 547 9 2019 36559 9364 25% 43 1587248 25788 42%
c - 44.55 402 507 10 2020 38259 7795 26% 46 1587248 25788 42%
c 
c  seconds    reductions      redundant    irredundant
c          MB      restarts          trail         variables
c            level      conflicts        glue           remaining
c 
c W 46.50 402 394 10 2023 45020 12857 25% 55 1587248 25788 42%
c - 47.28 403 387 11 2023 45523 7825 25% 55 1587248 25788 42%
c 2 49.03 403 336 11 2024 50003 10789 25% 57 1587248 25788 42%
c p 49.33 403 336 11 2024 50003 12896 25% 57 1587248 25788 42%
c - 51.01 402 324 12 2024 53450 8123 25% 59 1587248 25788 42%
c O 51.30 402 314 12 2025 55021 9302 26% 59 1587248 25788 42%
c - 52.98 401 263 13 2030 62032 7154 27% 58 1587248 25788 42%
c ] 53.12 401 258 13 2031 63006 7902 27% 57 1587248 25788 42%
c { 53.12 401 159 13 2031 63006 7902 31% 42 1587248 25788 42%
c B 53.76 401 148 13 2413 66024 10190 31% 43 1587248 25788 42%
c - 55.41 401 129 14 3002 71274 8479 31% 43 1587248 25788 42%
c s 55.68 401 127 14 3229 72227 9177 31% 44 1587248 25788 42%
c e 57.69 401 127 14 3229 72227 9177 31% 44 1587250 25787 42%
c s 57.73 401 127 14 3229 72227 9175 31% 44 1587250 25787 42%
c p 60.16 401 120 14 3918 75003 14737 31% 45 1587250 25787 42%
c W 61.85 401 114 14 4649 78025 15790 30% 46 1587250 25787 42%
c - 63.14 402 152 15 4652 81176 8137 30% 45 1587250 25787 42%
c # 64.96 402 149 15 5152 91027 14003 31% 45 1587250 25787 42%
c - 65.75 402 148 16 5152 91739 9070 31% 45 1587250 25787 42%
c - 68.12 402 130 17 5299 102962 11372 30% 44 1587250 25787 42%
c 
c  seconds    reductions       redundant    irredundant
c          MB      restarts           trail         variables
c            level      conflicts         glue           remaining
c 
c p 69.67 402 126 17 5368 105003 14055 30% 44 1587250 25787 42%
c B 69.98 402 126 17 5374 105028 14074 30% 44 1587250 25787 42%
c - 72.60 403 117 18 6389 114845 11995 31% 46 1587250 25787 42%
c W 75.13 403 113 18 6901 120030 15923 31% 46 1587250 25787 42%
c } 76.37 403 110 18 6964 127007 21038 32% 46 1587250 25787 42%
c [ 76.37 403 258 18 6964 127007 21038 27% 57 1587250 25787 42%
c - 77.16 403 257 19 6964 127388 12756 27% 58 1587250 25787 42%
c B 78.64 403 232 19 6969 136034 19457 28% 62 1587250 25787 42%
c p 80.78 403 234 19 6971 140005 28015 28% 61 1587250 25787 42%
c - 81.89 404 233 20 6971 140591 14254 28% 61 1587250 25787 42%
c W 85.87 404 199 20 6973 153041 23951 30% 65 1587250 25787 42%
c - 86.88 404 196 21 6973 154455 15152 30% 65 1587250 25787 42%
c - 90.03 404 187 22 6975 168983 14468 32% 70 1587250 25787 42%
c I 90.43 404 185 22 6976 171044 15795 32% 71 1587250 25787 42%
c p 93.81 404 310 22 6980 180006 24738 32% 73 1587250 25787 42%
c - 95.75 407 296 23 6983 184167 16089 33% 71 1587250 25787 42%
c B 97.04 407 286 23 6987 190047 20575 34% 71 1587250 25787 42%
c - 100.22 407 269 24 6988 200012 16341 35% 73 1587250 25787 42%
c W 104.92 407 250 24 6995 210048 23990 36% 74 1587250 25787 42%
c - 106.84 408 249 25 6998 216516 18250 36% 73 1587250 25787 42%
c 
c  seconds     reductions       redundant    irredundant
c           MB      restarts           trail         variables
c             level      conflicts         glue           remaining
c 
c p 109.60 408 236 25 7002 225006 25967 35% 73 1587250 25787 42%
c O 111.01 408 228 25 7003 231049 30899 34% 74 1587250 25787 42%
c - 112.05 407 222 26 7003 233681 19525 34% 72 1587250 25787 42%
c - 115.02 403 186 27 7005 251507 18613 30% 64 1587250 25787 42%
c B 115.27 403 183 27 7005 253051 19778 29% 63 1587250 25787 42%
c ] 115.81 403 421 27 7005 255009 21425 31% 66 1587250 25787 42%
c { 115.81 403 110 27 7005 255009 21425 32% 46 1587250 25787 42%
c - 119.21 404 103 28 8202 269992 19010 33% 46 1587250 25787 42%
c p 121.25 404 99 28 8212 275006 30037 32% 46 1587250 25787 42%
c F 121.70 404 98 28 8212 276052 30738 32% 45 1587250 25787 42%
c - 123.75 402 92 29 8212 289138 20537 29% 42 1587250 25787 42%
c B 124.91 402 89 29 8212 300054 28919 27% 41 1587250 25787 42%
c - 127.28 403 88 30 9300 308944 20903 27% 42 1587250 25787 42%
c W 132.56 403 85 30 10265 325055 32282 27% 40 1587250 25787 42%
c - 133.94 403 89 31 10598 329412 20118 28% 40 1587250 25787 42%
c s 134.08 403 89 31 10598 329412 19902 28% 40 1587250 25787 42%
c w 135.35 403 89 31 10598 329412 19853 28% 40 1587250 25787 42%
c 2 136.91 403 89 31 10648 330008 20320 28% 40 1587250 25787 42%
c p 137.16 403 89 31 10648 330008 23995 28% 40 1587250 25787 42%
c - 142.67 406 84 32 12539 350540 22472 29% 42 1587250 25787 42%
c 
c  seconds    reductions        redundant    irredundant
c           MB      restarts           trail         variables
c            level       conflicts         glue           remaining
c 
c # 142.76 406 83 32 12539 351056 22900 29% 42 1587250 25787 42%
c - 146.03 404 79 33 12543 372326 23700 27% 40 1587250 25787 42%
c B 146.75 404 77 33 12547 378057 28198 27% 40 1587250 25787 42%
c p 150.77 404 77 33 14119 390017 37539 28% 40 1587250 25787 42%
c - 152.72 404 77 34 14243 394773 23752 28% 40 1587250 25787 42%
c W 158.21 404 79 34 14545 406059 31438 28% 40 1587250 25787 42%
c - 160.65 403 75 35 14772 417880 20727 29% 40 1587250 25787 42%
c F 163.01 403 70 35 15055 435060 29937 30% 40 1587250 25787 42%
c - 164.65 403 72 36 15055 441650 21184 29% 39 1587250 25787 42%
c p 168.55 403 70 36 16559 455020 38107 29% 39 1587250 25787 42%
c B 170.51 403 70 36 16829 465062 45095 30% 39 1587250 25787 42%
c - 171.87 404 70 37 17035 466078 22467 30% 39 1587250 25787 42%
c - 176.59 403 76 38 17389 491166 23503 28% 36 1587250 25787 42%
c W 181.91 403 79 38 17400 496063 27239 28% 36 1587250 25787 42%
c } 185.51 403 78 38 20697 511013 35562 29% 38 1587250 25787 42%
c [ 185.51 403 421 38 20697 511013 35562 31% 66 1587250 25787 42%
c - 187.38 405 396 39 20697 516914 23541 30% 65 1587250 25787 42%
c p 190.56 405 366 39 20697 525025 33948 29% 63 1587250 25787 42%
c W 196.11 405 397 39 20697 528064 36398 29% 63 1587250 25787 42%
c - 199.71 409 357 40 20700 543324 27921 28% 67 1587250 25787 42%
c 
c  seconds     reductions        redundant    irredundant
c           MB       restarts           trail         variables
c             level       conflicts         glue           remaining
c 
c I 203.30 409 307 40 20710 561066 40407 30% 67 1587250 25787 42%
c - 206.18 410 302 41 20712 570393 27632 30% 65 1587250 25787 42%
c B 211.45 410 268 41 20726 595072 46347 31% 64 1587250 25787 42%
c - 212.75 410 305 42 20726 598122 28967 31% 65 1587250 25787 42%
c p 214.88 410 305 42 20727 600027 31886 31% 65 1587250 25787 42%
c - 222.40 415 254 43 20731 626511 30254 30% 66 1587250 25787 42%
c W 228.13 415 249 43 20734 630073 32908 30% 67 1587250 25787 42%
c - 234.89 415 215 44 20743 655561 31869 29% 69 1587250 25787 42%
c s 235.01 415 215 44 20743 655561 31644 29% 69 1587250 25787 42%
c w 236.28 415 215 44 20743 655561 31621 29% 69 1587250 25787 42%
c O 238.75 415 202 44 20750 666076 38736 29% 69 1587250 25787 42%
c 2 243.06 415 183 44 20757 680027 49368 30% 67 1587250 25787 42%
c p 243.44 415 183 44 20757 680027 57806 30% 67 1587250 25787 42%
c - 245.68 408 177 45 20758 685269 31716 30% 66 1587250 25787 42%
c B 249.55 408 160 45 20759 703082 45594 32% 65 1587250 25787 42%
c - 252.58 410 158 46 20760 715639 31760 32% 69 1587250 25787 42%
c W 263.86 410 149 46 20761 741084 50097 33% 74 1587250 25787 42%
c - 266.09 411 146 47 20761 746668 31398 34% 75 1587250 25787 42%
c p 271.94 411 140 47 20761 765028 48102 34% 78 1587250 25787 42%
c - 277.07 361 134 48 20761 778358 32227 35% 77 1587250 25787 42%
c 
c  seconds     reductions        redundant    irredundant
c           MB       restarts           trail         variables
c             level       conflicts         glue           remaining
c 
c I 277.46 361 133 48 20761 780088 33599 35% 77 1587250 25787 42%
c - 285.15 415 605 49 20766 810709 35895 35% 82 1587250 25787 42%
c B 287.39 415 570 49 20771 820090 42968 35% 82 1587250 25787 42%
c - 291.97 361 497 50 20780 843718 35816 34% 79 1587250 25787 42%
c p 295.49 361 457 50 20786 855029 46022 33% 77 1587250 25787 42%
c W 303.15 361 438 50 20790 861093 50720 33% 76 1587250 25787 42%
c - 305.88 412 404 51 20792 877389 37209 31% 72 1587250 25787 42%
c O 309.95 412 375 51 20802 903095 56113 31% 68 1587250 25787 42%
c - 311.92 361 349 52 20806 911720 36142 30% 65 1587250 25787 42%
c B 317.73 361 271 52 20821 946097 61589 29% 63 1587250 25787 42%
c - 318.58 411 274 53 20822 946712 36038 29% 63 1587250 25787 42%
c p 320.47 411 274 53 20822 950031 47153 29% 62 1587250 25787 42%
c - 327.65 361 219 54 20824 982363 37317 28% 61 1587250 25787 42%
c W 336.46 361 208 54 20824 990100 43115 28% 61 1587250 25787 42%
c - 344.10 410 178 55 20833 1018673 40510 29% 62 1587250 25787 42%
c s 344.26 410 178 55 20833 1018673 40402 29% 62 1587250 25787 42%
c ] 346.98 410 211 55 20836 1023020 43749 30% 62 1587250 25787 42%
c { 346.98 410 78 55 20836 1023020 43749 29% 38 1587250 25787 42%
c # 349.66 410 78 55 23444 1035101 51463 29% 40 1587250 25787 42%
c p 352.68 410 78 55 23496 1050031 64902 27% 38 1587250 25787 42%
c 
c  seconds    reductions         redundant    irredundant
c           MB      restarts            trail         variables
c            level        conflicts         glue           remaining
c 
c - 354.33 361 78 56 23496 1055644 36199 27% 38 1587250 25787 42%
c B 359.12 361 77 56 25539 1081104 53663 27% 37 1587250 25787 42%
c - 362.31 407 75 57 28466 1093275 36844 28% 39 1587250 25787 42%
c W 376.17 407 69 57 36944 1128108 49679 31% 42 1587250 25787 42%
c - 377.41 361 68 58 37663 1131567 24516 31% 43 1587250 25787 42%
c p 382.42 361 64 58 41372 1155034 34553 32% 44 1587250 25787 42%
c - 385.88 403 62 59 43105 1170520 21837 33% 44 1587250 25787 42%
c F 386.66 403 62 59 43793 1176110 23950 33% 45 1587250 25787 42%
c - 391.85 361 70 60 43793 1210131 36366 30% 38 1587250 25787 42%
c B 394.14 361 73 60 43793 1225113 48171 28% 37 1587250 25787 42%
c - 400.39 406 72 61 46758 1250403 38203 29% 37 1587250 25787 42%
c p 404.21 406 68 61 46792 1265034 56551 29% 37 1587250 25787 42%
c W 416.21 406 66 61 46804 1275115 63429 29% 37 1587250 25787 42%
c - 419.70 361 62 62 46837 1291336 38723 29% 36 1587250 25787 42%
c # 426.56 361 54 62 46845 1326117 59419 29% 35 1587250 25787 42%
c - 428.52 406 55 63 47212 1332931 38994 29% 34 1587250 25787 42%
c - 437.35 361 55 64 56379 1375184 31492 28% 39 1587250 25787 42%
c B 437.89 361 55 64 57050 1378118 32961 28% 40 1587250 25787 42%
c p 439.71 361 55 64 57487 1380034 38831 28% 40 1587250 25787 42%
c - 448.33 408 59 65 62130 1418097 36497 30% 41 1587250 25787 42%
c 
c  seconds    reductions         redundant    irredundant
c           MB      restarts            trail         variables
c            level        conflicts         glue           remaining
c 
c W 461.38 408 61 65 62176 1431119 46889 31% 41 1587250 25787 42%
c - 467.87 361 61 66 65627 1461670 42478 31% 41 1587250 25787 42%
c s 468.10 361 61 66 65627 1461670 42218 31% 41 1587250 25787 42%
c F 473.48 361 59 66 69224 1485121 54280 30% 42 1587250 25787 42%
c p 476.36 361 64 66 69225 1500035 66865 28% 39 1587250 25787 42%
c - 478.10 406 63 67 69225 1505902 41715 27% 39 1587250 25787 42%
c B 483.85 406 59 67 69225 1540125 68852 24% 35 1587250 25787 42%
c - 487.20 361 60 68 71301 1550797 46062 25% 36 1587250 25787 42%
c W 507.91 361 72 68 77249 1596129 77439 28% 38 1587250 25787 42%
c - 508.75 409 72 69 77297 1596350 44351 28% 38 1587250 25787 42%
c p 515.90 409 70 69 83187 1625039 73619 27% 41 1587250 25787 42%
c - 521.27 361 69 70 87080 1642566 46346 27% 43 1587250 25787 42%
c # 523.91 361 69 70 89499 1653130 54322 26% 44 1587250 25787 42%
c - 528.97 410 64 71 90562 1689439 41743 25% 45 1587250 25787 42%
c B 531.80 410 61 71 91165 1711131 55427 25% 45 1587250 25787 42%
c - 537.14 361 63 72 91539 1736973 45648 27% 44 1587250 25787 42%
c p 540.80 361 63 72 91648 1755041 62164 28% 44 1587250 25787 42%
c W 552.74 361 62 72 91758 1770133 71318 28% 44 1587250 25787 42%
c - 555.44 408 60 73 91855 1785169 42744 28% 44 1587250 25787 42%
c F 562.67 408 58 73 97855 1830136 74513 31% 45 1587250 25787 42%
c 
c  seconds    reductions         redundant    irredundant
c           MB      restarts            trail         variables
c            level        conflicts         glue           remaining
c 
c - 563.55 361 59 74 97855 1834025 47212 31% 45 1587250 25787 42%
c - 568.77 407 50 75 97861 1883541 50015 25% 38 1587250 25787 42%
c p 570.42 407 50 75 97923 1890045 55740 24% 38 1587250 25787 42%
c B 570.76 407 50 75 97923 1891138 56459 24% 38 1587250 25787 42%
c - 577.86 361 50 76 101713 1933715 45913 27% 40 1587250 25787 42%
c W 590.98 361 49 76 102120 1953139 55755 29% 40 1587250 25787 42%
c - 596.79 406 47 77 102261 1984549 40540 31% 40 1587250 25787 42%
c s 596.92 406 47 77 102261 1984549 40429 31% 40 1587250 25787 42%
c w 597.86 406 47 77 102261 1984549 40392 31% 40 1587250 25787 42%
c } 599.89 406 47 77 102330 1994963 45620 31% 40 1587250 25787 42%
c ? 599.89 406 47 77 102330 1994963 45620 31% 40 1587250 25787 42%
c 
c --- [ result ] -------------------------------------------------------------
c 
c UNKNOWN
c 
c --- [ run-time profiling ] -------------------------------------------------
c 
c process time taken by individual solving procedures
c (percentage relative to process time for solving)
c 
c       531.65   88.99% search
c       254.72   42.64% unstable
c       169.49   28.37% stable
c       107.43   17.98% walk
c        65.79   11.01% simplify
c        17.44    2.92% ternary
c         8.71    1.46% vivify
c         8.24    1.38% probe
c         5.20    0.87% elim
c         2.78    0.46% subsume
c         2.45    0.41% parse
c         0.01    0.00% lucky
c   =================================
c       597.44   99.59% solve
c 
c last line shows process time for solving
c (percentage relative to total process time)
c 
c --- [ statistics ] ---------------------------------------------------------
c 
c chronological:            445129        22.31 %  of conflicts
c conflicts:               1994963      3339.20    per second
c decisions:               3487258      5837.03    per second
c eliminated:                20128        33.00 %  of all variables
c fixed:                     15085        24.73 %  of all variables
c learned:                 1958993        98.20 %  per conflict
c learned_lits:          332705268       100.00 %  learned literals
c minimized:                     0         0.00 %  learned literals
c shrunken:              161397356        48.51 %  learned literals
c minishrunken:           13789598         4.14 %  learned literals
c propagations:          718312804         1.20 M  per second
c reduced:                 1317906        66.06 %  per conflict
c rephased:                     62     32176.82    interval
c restarts:                 102330        19.50    interval
c stabilizing:                   5        34.19 %  of conflicts
c subsumed:                 591465         5.00 %  of all clauses
c strengthened:              10399         0.09 %  of all clauses
c vivified:                    275         0.00 %  of all clauses
c walked:                       20     99748.15    interval
c weakened:                2269825         2.01    average size
c 
c seconds are measured in process time for solving
c 
c --- [ resources ] ----------------------------------------------------------
c 
c total process time since initialization:       599.89    seconds
c total real time since initialization:          600.00    seconds
c maximum resident set size of process:          553.80    MB
c 
c --- [ shutting down ] ------------------------------------------------------
c 
c exit 0
